Route #1:
Route #2: 14
Route #3: 25 1
Route #4: 26 6 12
Route #5: 16 19 3
Route #6: 5 29 15 11 4 22 8
Route #7: 31 21 30
Route #8: 9 13 7
Route #9: 20
Route #10: 27
Route #11: 23 2
Route #12: 18 28
Route #13: 24 10
Route #14: 17

Cost: 2041.6624885345204
